language Essence 1.3

letting bot_end be [708, 1, 86, 765, 181, 781, 724, 799, 131, 251, 198, 276, 249, 606, 750, 650, 11; int(1..17)]
letting bot_start be [164, 455, 537, 176, 721, 313, 177, 338, 773, 743, 751, 758, 782, 16, 48, 68, 769; int(1..17)]
letting buffer_col be 2
letting buffer_row be 2
letting corridor_size be 2
letting n_shelves_col be 1
letting n_shelves_row be 32
letting shelf_col_size be 2
letting shelf_row_size be 1
